unsat
(:binary-propagations  26
 :conflicts            1
 :final-checks         1
 :max-generation       1
 :max-memory           24.87
 :memory               21.43
 :mk-bool-var          1330
 :mk-clause            400
 :mk-clause-binary     1027
 :num-allocs           25881429
 :num-checks           1
 :propagations         26
 :quant-instantiations 280
 :restarts             1
 :rlimit-count         246176
 :time                 0.07)
